NAME          DCAP_3_4_2_500_SS200
ROWS
 N  OBJ
 L  CON1
 L  CON2
 L  CON3
 L  CON4
 L  CON5
 L  CON6
 L  CON7
 L  CON8
 L  CON9
 L  CON10
 L  CON11
 L  CON12
 E  CON13
 E  CON14
 E  CON15
 E  CON16
 E  CON17
 E  CON18
 E  CON19
 E  CON20
COLUMNS
    x[1,1]    OBJ       6.180167      CON1      1.000000    
    x[1,1]    CON7      -1.000000     CON8      -1.000000   
    x[1,2]    OBJ       5.039546      CON2      1.000000    
    x[1,2]    CON8      -1.000000   
    x[2,1]    OBJ       6.732585      CON3      1.000000    
    x[2,1]    CON9      -1.000000     CON10     -1.000000   
    x[2,2]    OBJ       7.443064      CON4      1.000000    
    x[2,2]    CON10     -1.000000   
    x[3,1]    OBJ       6.563535      CON5      1.000000    
    x[3,1]    CON11     -1.000000     CON12     -1.000000   
    x[3,2]    OBJ       6.054841      CON6      1.000000    
    x[3,2]    CON12     -1.000000   
    MARKER    'MARKER'                'INTORG'
    u[1,1]    OBJ       48.076654     CON1      -1.000000   
    u[1,2]    OBJ       49.466655     CON2      -1.000000   
    u[2,1]    OBJ       49.996186     CON3      -1.000000   
    u[2,2]    OBJ       32.230043     CON4      -1.000000   
    u[3,1]    OBJ       20.066487     CON5      -1.000000   
    u[3,2]    OBJ       27.484319     CON6      -1.000000   
    y[1,1,1]  OBJ       9.224441      CON7      1.331513    
    y[1,1,1]  CON13     1.000000    
    y[1,1,2]  OBJ       7.140216      CON8      0.595640    
    y[1,1,2]  CON14     1.000000    
    y[1,2,1]  OBJ       7.088680      CON7      0.892717    
    y[1,2,1]  CON15     1.000000    
    y[1,2,2]  OBJ       9.077360      CON8      0.656994    
    y[1,2,2]  CON16     1.000000    
    y[1,3,1]  OBJ       7.916614      CON7      0.937259    
    y[1,3,1]  CON17     1.000000    
    y[1,3,2]  OBJ       6.443663      CON8      0.516924    
    y[1,3,2]  CON18     1.000000    
    y[1,4,1]  OBJ       5.012417      CON7      0.854547    
    y[1,4,1]  CON19     1.000000    
    y[1,4,2]  OBJ       5.083294      CON8      0.689516    
    y[1,4,2]  CON20     1.000000    
    y[2,1,1]  OBJ       5.258667      CON9      1.331513    
    y[2,1,1]  CON13     1.000000    
    y[2,1,2]  OBJ       6.077372      CON10     0.595640    
    y[2,1,2]  CON14     1.000000    
    y[2,2,1]  OBJ       6.989230      CON9      0.892717    
    y[2,2,1]  CON15     1.000000    
    y[2,2,2]  OBJ       6.957532      CON10     0.656994    
    y[2,2,2]  CON16     1.000000    
    y[2,3,1]  OBJ       8.016732      CON9      0.937259    
    y[2,3,1]  CON17     1.000000    
    y[2,3,2]  OBJ       7.462162      CON10     0.516924    
    y[2,3,2]  CON18     1.000000    
    y[2,4,1]  OBJ       5.012931      CON9      0.854547    
    y[2,4,1]  CON19     1.000000    
    y[2,4,2]  OBJ       7.672478      CON10     0.689516    
    y[2,4,2]  CON20     1.000000    
    y[3,1,1]  OBJ       8.516608      CON11     1.331513    
    y[3,1,1]  CON13     1.000000    
    y[3,1,2]  OBJ       7.473181      CON12     0.595640    
    y[3,1,2]  CON14     1.000000    
    y[3,2,1]  OBJ       5.329434      CON11     0.892717    
    y[3,2,1]  CON15     1.000000    
    y[3,2,2]  OBJ       8.075222      CON12     0.656994    
    y[3,2,2]  CON16     1.000000    
    y[3,3,1]  OBJ       5.722752      CON11     0.937259    
    y[3,3,1]  CON17     1.000000    
    y[3,3,2]  OBJ       5.876285      CON12     0.516924    
    y[3,3,2]  CON18     1.000000    
    y[3,4,1]  OBJ       7.868463      CON11     0.854547    
    y[3,4,1]  CON19     1.000000    
    y[3,4,2]  OBJ       5.645868      CON12     0.689516    
    y[3,4,2]  CON20     1.000000    
    z[1,1]    OBJ       634.839417    CON13     1.000000    
    z[1,2]    OBJ       575.534952    CON14     1.000000    
    z[2,1]    OBJ       694.258619    CON15     1.000000    
    z[2,2]    OBJ       866.528845    CON16     1.000000    
    z[3,1]    OBJ       784.474174    CON17     1.000000    
    z[3,2]    OBJ       599.580297    CON18     1.000000    
    z[4,1]    OBJ       944.808838    CON19     1.000000    
    z[4,2]    OBJ       997.763743    CON20     1.000000    
    MARKER    'MARKER'                 'INTEND'
RHS
    RHS       CON1      -0.000000     CON2      -0.000000   
    RHS       CON3      -0.000000     CON4      -0.000000   
    RHS       CON5      -0.000000     CON6      -0.000000   
    RHS       CON7      -0.000000     CON8      -0.000000   
    RHS       CON9      -0.000000     CON10     -0.000000   
    RHS       CON11     -0.000000     CON12     -0.000000   
    RHS       CON13     1.000000      CON14     1.000000    
    RHS       CON15     1.000000      CON16     1.000000    
    RHS       CON17     1.000000      CON18     1.000000    
    RHS       CON19     1.000000      CON20     1.000000    
BOUNDS
 BV BOUND     u[1,1]  
 BV BOUND     u[1,2]  
 BV BOUND     u[2,1]  
 BV BOUND     u[2,2]  
 BV BOUND     u[3,1]  
 BV BOUND     u[3,2]  
 BV BOUND     y[1,1,1]
 BV BOUND     y[1,1,2]
 BV BOUND     y[1,2,1]
 BV BOUND     y[1,2,2]
 BV BOUND     y[1,3,1]
 BV BOUND     y[1,3,2]
 BV BOUND     y[1,4,1]
 BV BOUND     y[1,4,2]
 BV BOUND     y[2,1,1]
 BV BOUND     y[2,1,2]
 BV BOUND     y[2,2,1]
 BV BOUND     y[2,2,2]
 BV BOUND     y[2,3,1]
 BV BOUND     y[2,3,2]
 BV BOUND     y[2,4,1]
 BV BOUND     y[2,4,2]
 BV BOUND     y[3,1,1]
 BV BOUND     y[3,1,2]
 BV BOUND     y[3,2,1]
 BV BOUND     y[3,2,2]
 BV BOUND     y[3,3,1]
 BV BOUND     y[3,3,2]
 BV BOUND     y[3,4,1]
 BV BOUND     y[3,4,2]
 BV BOUND     z[1,1]  
 BV BOUND     z[1,2]  
 BV BOUND     z[2,1]  
 BV BOUND     z[2,2]  
 BV BOUND     z[3,1]  
 BV BOUND     z[3,2]  
 BV BOUND     z[4,1]  
 BV BOUND     z[4,2]  
ENDATA
